
Gurobi 8.1.1 (mac64, Python) logging started Mon Aug 19 19:46:20 2019


Gurobi 8.1.1 (mac64, Python) logging started Mon Aug 19 19:49:03 2019


Gurobi 8.1.1 (mac64, Python) logging started Tue Oct  8 01:53:50 2019

